unknown
(model
; cardinality of BoundSet is 1
(declare-sort BoundSet 0)
; rep: @uc_BoundSet_0
(declare-sort UnboundSet 0)
(define-fun IsPersonallyAttacking ((BOUND_VARIABLE_366 BoundSet)) Bool true)
(define-fun IsFormOfBullying ((BOUND_VARIABLE_366 BoundSet)) Bool true)
(define-fun IsAttacking ((BOUND_VARIABLE_366 BoundSet)) Bool false)
(define-fun IsBullying ((BOUND_VARIABLE_366 BoundSet)) Bool false)
)
sat
(model
; cardinality of BoundSet is 1
(declare-sort BoundSet 0)
; rep: @uc_BoundSet_0
(declare-sort UnboundSet 0)
(define-fun IsPersonallyAttacking ((BOUND_VARIABLE_394 BoundSet)) Bool true)
(define-fun IsFormOfBullying ((BOUND_VARIABLE_394 BoundSet)) Bool true)
(define-fun IsAttacking ((BOUND_VARIABLE_394 BoundSet)) Bool false)
(define-fun IsBullying ((BOUND_VARIABLE_394 BoundSet)) Bool false)
)
